% File represents an instance of a Composite Structure problem to be solved by a CP framework
% Created on 2025-03-26 10:41:25.052
T = 58;
n = 16;
m = 24;
edges = [(1, 2),
(5, 6),
(10, 9),
(14, 13),
(2, 3),
(6, 7),
(10, 11),
(14, 15),
(4, 3),
(8, 7),
(12, 11),
(15, 16),
(1, 5),
(5, 9),
(13, 9),
(2, 6),
(6, 10),
(14, 10),
(3, 7),
(7, 11),
(15, 11),
(4, 8),
(8, 12),
(12, 16)];
counts = [|16, 22, 16, 4,
|16, 20, 16, 4,
|14, 20, 14, 4,
|14, 20, 14, 8,
|16, 18, 16, 4,
|16, 18, 16, 2,
|14, 18, 14, 2,
|14, 20, 14, 4,
|16, 14, 16, 2,
|16, 16, 16, 2,
|14, 14, 14, 2,
|14, 18, 14, 2,
|16, 18, 16, 2,
|16, 18, 16, 4,
|14, 16, 14, 4,
|14, 16, 14, 2|];
